
Gurobi 7.5.2 (linux64) logging started Sat Jun 23 16:32:09 2018

Changed value of parameter LogFile to result/ilp/simNo_6-n_100-m_40-s_4-minVAF_0.05-cov_2000-k_2-fn_0.15-fp_0.0001-na_0.15.ILP.gurobiSolverLog
   Prev: gurobi.log  Default: 
Changed value of parameter TimeLimit to 86400.0
   Prev: 1e+100  Min: 0.0  Max: 1e+100  Default: 1e+100
Optimize a model with 1265601 rows, 330440 columns and 3489120 nonzeros
Variable types: 0 continuous, 330440 integer (330440 binary)
Coefficient statistics:
  Matrix range     [3e-03, 3e+00]
  Objective range  [1e+00, 1e+01]
  Bounds range     [1e+00, 1e+00]
  RHS range        [3e-01, 2e+00]
Found heuristic solution: objective -14715.58556
Presolve removed 340843 rows and 215165 columns (presolve time = 5s) ...
Presolve removed 341313 rows and 215165 columns (presolve time = 10s) ...
Presolve removed 341313 rows and 215165 columns (presolve time = 15s) ...
Presolve removed 341313 rows and 215165 columns (presolve time = 21s) ...
Presolve removed 341313 rows and 215165 columns (presolve time = 25s) ...
Presolve removed 341313 rows and 215165 columns (presolve time = 34s) ...
Presolve removed 341313 rows and 215165 columns (presolve time = 36s) ...
Presolve removed 341313 rows and 215165 columns
Presolve time: 36.00s
Presolved: 924288 rows, 115275 columns, 2563056 nonzeros
Variable types: 0 continuous, 115275 integer (115275 binary)
Presolved: 115275 rows, 1039563 columns, 2678331 nonzeros

Presolve removed 115275 rows and 1039563 columns

Root simplex log...

Iteration    Objective       Primal Inf.    Dual Inf.      Time
       0    2.1946163e+01   0.000000e+00   9.812100e+04     45s
    5023   -6.7321853e+01   0.000000e+00   2.630955e+05     45s
   16993   -2.5368714e+02   0.000000e+00   4.812427e+05     50s
   28393   -2.8819251e+02   0.000000e+00   1.131979e+05     55s
   36700   -3.0452027e+02   0.000000e+00   0.000000e+00     59s
   36700   -3.0452027e+02   0.000000e+00   0.000000e+00     62s

Root relaxation: objective -3.045203e+02, 36700 iterations, 22.45 seconds
Total elapsed time = 102.47s
Total elapsed time = 131.60s
Total elapsed time = 156.30s

    Nodes    |    Current Node    |     Objective Bounds      |     Work
 Expl Unexpl |  Obj  Depth IntInf | Incumbent    BestBd   Gap | It/Node Time

     0     0 -304.52027    0 1252 -14715.586 -304.52027  97.9%     -  165s
H    0     0                    -1107.823141 -304.52027  72.5%     -  183s
H    0     0                    -490.9788143 -304.52027  38.0%     -  185s
H    0     0                    -386.3909232 -304.52027  21.2%     -  194s
     0     0 -309.57950    0 1287 -386.39092 -309.57950  19.9%     -  238s
H    0     0                    -372.3248025 -309.57950  16.9%     -  253s
     0     0 -313.93563    0 1273 -372.32480 -313.93563  15.7%     -  285s
     0     0 -317.93298    0 1205 -372.32480 -317.93298  14.6%     -  334s
     0     0 -317.93298    0 1208 -372.32480 -317.93298  14.6%     -  352s
     0     0 -319.25172    0 1187 -372.32480 -319.25172  14.3%     -  379s
     0     0 -319.25172    0 1187 -372.32480 -319.25172  14.3%     -  398s
     0     0 -321.01005    0 1184 -372.32480 -321.01005  13.8%     -  423s
     0     0 -322.98270    0 1202 -372.32480 -322.98270  13.3%     -  458s
     0     0 -323.31512    0 1253 -372.32480 -323.31512  13.2%     -  481s
     0     0 -323.31512    0 1252 -372.32480 -323.31512  13.2%     -  491s
     0     0 -325.29324    0 1287 -372.32480 -325.29324  12.6%     -  521s
     0     0 -325.51303    0 1287 -372.32480 -325.51303  12.6%     -  546s
     0     0 -325.51303    0 1269 -372.32480 -325.51303  12.6%     -  557s
     0     0 -326.83126    0 1304 -372.32480 -326.83126  12.2%     -  587s
H    0     0                    -372.3243075 -326.83126  12.2%     -  602s
     0     0 -327.16401    0 1218 -372.32431 -327.16401  12.1%     -  613s
     0     0 -327.36418    0 1323 -372.32431 -327.36418  12.1%     -  630s
     0     0 -327.36418    0 1322 -372.32431 -327.36418  12.1%     -  638s
     0     0 -328.68858    0 1314 -372.32431 -328.68858  11.7%     -  661s
     0     0 -328.90472    0 1320 -372.32431 -328.90472  11.7%     -  691s
     0     0 -329.00513    0 1320 -372.32431 -329.00513  11.6%     -  702s
     0     0 -329.04141    0 1321 -372.32431 -329.04141  11.6%     -  711s
     0     0 -329.04141    0 1321 -372.32431 -329.04141  11.6%     -  719s
     0     0 -329.66660    0 1327 -372.32431 -329.66660  11.5%     -  742s
     0     0 -329.87721    0 1329 -372.32431 -329.87721  11.4%     -  772s
     0     0 -329.89924    0 1241 -372.32431 -329.89924  11.4%     -  781s
     0     0 -329.90003    0 1361 -372.32431 -329.90003  11.4%     -  789s
     0     0 -332.10659    0 1320 -372.32431 -332.10659  10.8%     -  821s
     0     0 -332.69502    0 1329 -372.32431 -332.69502  10.6%     -  848s
     0     0 -332.75466    0 1327 -372.32431 -332.75466  10.6%     -  861s
     0     0 -332.75466    0 1327 -372.32431 -332.75466  10.6%     -  871s
     0     0 -333.91120    0 1212 -372.32431 -333.91120  10.3%     -  914s
     0     0 -334.14719    0 1326 -372.32431 -334.14719  10.3%     -  939s
     0     0 -334.16864    0 1332 -372.32431 -334.16864  10.2%     -  951s
     0     0 -334.16864    0 1334 -372.32431 -334.16864  10.2%     -  959s
     0     0 -335.58161    0 1416 -372.32431 -335.58161  9.87%     -  991s
     0     0 -335.81359    0 1415 -372.32431 -335.81359  9.81%     - 1030s
     0     0 -335.93267    0 1418 -372.32431 -335.93267  9.77%     - 1042s
     0     0 -335.94018    0 1424 -372.32431 -335.94018  9.77%     - 1051s
     0     0 -335.94018    0 1422 -372.32431 -335.94018  9.77%     - 1061s
     0     0 -336.88803    0 1311 -372.32431 -336.88803  9.52%     - 1092s
     0     0 -337.37302    0 1370 -372.32431 -337.37302  9.39%     - 1131s
     0     0 -337.40198    0 1368 -372.32431 -337.40198  9.38%     - 1141s
     0     0 -337.40198    0 1368 -372.32431 -337.40198  9.38%     - 1151s
     0     0 -339.42655    0 1343 -372.32431 -339.42655  8.84%     - 1206s
H    0     0                    -360.3131833 -339.42655  5.80%     - 1221s
     0     0 -339.86415    0 1282 -360.31318 -339.86415  5.68%     - 1247s
     0     0 -339.89715    0 1270 -360.31318 -339.89715  5.67%     - 1260s
     0     0 -339.90524    0 1286 -360.31318 -339.90524  5.66%     - 1272s
     0     0 -339.90638    0 1295 -360.31318 -339.90638  5.66%     - 1283s
     0     0 -340.32193    0 1399 -360.31318 -340.32193  5.55%     - 1306s
     0     0 -340.47740    0 1384 -360.31318 -340.47740  5.51%     - 1328s
     0     0 -340.69825    0 1389 -360.31318 -340.69825  5.44%     - 1339s
     0     0 -340.69825    0 1417 -360.31318 -340.69825  5.44%     - 1347s
     0     0 -341.57097    0 1391 -360.31318 -341.57097  5.20%     - 1370s
     0     0 -341.97035    0 1391 -360.31318 -341.97035  5.09%     - 1391s
     0     0 -341.99644    0 1424 -360.31318 -341.99644  5.08%     - 1400s
     0     0 -342.06669    0 1428 -360.31318 -342.06669  5.06%     - 1410s
     0     0 -342.06669    0 1428 -360.31318 -342.06669  5.06%     - 1417s
     0     0 -343.45843    0 1367 -360.31318 -343.45843  4.68%     - 1454s
     0     0 -343.56276    0 1417 -360.31318 -343.56276  4.65%     - 1477s
     0     0 -343.63212    0 1426 -360.31318 -343.63212  4.63%     - 1494s
     0     0 -343.65919    0 1427 -360.31318 -343.65919  4.62%     - 1505s
     0     0 -343.69005    0 1434 -360.31318 -343.69005  4.61%     - 1516s
     0     0 -343.69487    0 1432 -360.31318 -343.69487  4.61%     - 1526s
     0     0 -343.69487    0 1432 -360.31318 -343.69487  4.61%     - 1534s
     0     0 -345.51107    0 1361 -360.31318 -345.51107  4.11%     - 1578s
     0     0 -345.91995    0 1400 -360.31318 -345.91995  3.99%     - 1610s
     0     0 -346.03684    0 1398 -360.31318 -346.03684  3.96%     - 1622s
     0     0 -346.06645    0  887 -360.31318 -346.06645  3.95%     - 1636s
     0     0 -346.10824    0 1334 -360.31318 -346.10824  3.94%     - 1650s
     0     0 -346.12015    0 1395 -360.31318 -346.12015  3.94%     - 1661s
     0     0 -346.12198    0 1398 -360.31318 -346.12198  3.94%     - 1672s
     0     0 -346.47886    0 1343 -360.31318 -346.47886  3.84%     - 1696s
     0     0 -347.50450    0 1333 -360.31318 -347.50450  3.55%     - 1730s
     0     0 -347.56464    0 1336 -360.31318 -347.56464  3.54%     - 1743s
     0     0 -347.59229    0 1336 -360.31318 -347.59229  3.53%     - 1755s
     0     0 -347.59232    0 1336 -360.31318 -347.59232  3.53%     - 1763s
     0     0 -348.21237    0 1351 -360.31318 -348.21237  3.36%     - 1785s
     0     0 -348.76333    0 1419 -360.31318 -348.76333  3.21%     - 1816s
     0     0 -348.76333    0 1421 -360.31318 -348.76333  3.21%     - 1826s
     0     0 -350.11848    0 1382 -360.31318 -350.11848  2.83%     - 1873s
     0     0 -350.14625    0 1367 -360.31318 -350.14625  2.82%     - 1904s
     0     0 -350.16141    0 1353 -360.31318 -350.16141  2.82%     - 1914s
     0     0 -350.16141    0 1350 -360.31318 -350.16141  2.82%     - 1922s
     0     0 -350.54859    0 1306 -360.31318 -350.54859  2.71%     - 1947s
     0     0 -350.61824    0 1323 -360.31318 -350.61824  2.69%     - 1974s
     0     0 -350.74585    0 1342 -360.31318 -350.74585  2.66%     - 1991s
     0     0 -350.83421    0 1311 -360.31318 -350.83421  2.63%     - 2007s
     0     0 -350.83503    0 1293 -360.31318 -350.83503  2.63%     - 2019s
     0     0 -351.31343    0 1330 -360.31318 -351.31343  2.50%     - 2045s
     0     0 -351.35823    0 1344 -360.31318 -351.35823  2.49%     - 2072s
     0     0 -351.41443    0 1340 -360.31318 -351.41443  2.47%     - 2086s
     0     0 -351.47101    0 1338 -360.31318 -351.47101  2.45%     - 2099s
     0     0 -351.47543    0 1340 -360.31318 -351.47543  2.45%     - 2111s
     0     0 -351.63433    0 1255 -360.31318 -351.63433  2.41%     - 2144s
     0     0 -351.64046    0 1316 -360.31318 -351.64046  2.41%     - 2171s
     0     0 -351.66653    0 1320 -360.31318 -351.66653  2.40%     - 2186s
     0     0 -351.67966    0 1321 -360.31318 -351.67966  2.40%     - 2200s
     0     0 -351.68001    0 1322 -360.31318 -351.68001  2.40%     - 2209s
     0     0 -352.00254    0 1344 -360.31318 -352.00254  2.31%     - 2237s
     0     0 -352.10270    0 1340 -360.31318 -352.10270  2.28%     - 2270s
     0     0 -352.12000    0 1351 -360.31318 -352.12000  2.27%     - 2283s
     0     0 -352.12979    0 1351 -360.31318 -352.12979  2.27%     - 2298s
     0     0 -352.13177    0 1350 -360.31318 -352.13177  2.27%     - 2309s
     0     0 -352.46978    0 1287 -360.31318 -352.46978  2.18%     - 2334s
     0     0 -352.54160    0 1281 -360.31318 -352.54160  2.16%     - 2363s
     0     0 -352.57967    0 1337 -360.31318 -352.57967  2.15%     - 2376s
     0     0 -352.63037    0 1338 -360.31318 -352.63037  2.13%     - 2392s
     0     0 -352.67798    0 1334 -360.31318 -352.67798  2.12%     - 2407s
     0     0 -352.67798    0 1345 -360.31318 -352.67798  2.12%     - 2417s
     0     0 -352.73410    0 1342 -360.31318 -352.73410  2.10%     - 2443s
     0     0 -352.78412    0 1346 -360.31318 -352.78412  2.09%     - 2466s
     0     0 -352.84057    0 1346 -360.31318 -352.84057  2.07%     - 2479s
     0     0 -352.84683    0 1354 -360.31318 -352.84683  2.07%     - 2492s
     0     0 -352.85162    0 1357 -360.31318 -352.85162  2.07%     - 2502s
     0     0 -353.02499    0 1336 -360.31318 -353.02499  2.02%     - 2529s
     0     0 -353.06036    0 1316 -360.31318 -353.06036  2.01%     - 2550s
     0     0 -353.08112    0 1326 -360.31318 -353.08112  2.01%     - 2563s
     0     0 -353.08811    0 1343 -360.31318 -353.08811  2.01%     - 2576s
     0     0 -353.08811    0 1350 -360.31318 -353.08811  2.01%     - 2585s
     0     0 -353.08811    0 1346 -360.31318 -353.08811  2.01%     - 2608s
     0     0 -353.08811    0 1347 -360.31318 -353.08811  2.01%     - 2629s
     0     0 -353.08862    0 1346 -360.31318 -353.08862  2.01%     - 2652s
     0     0 -353.10894    0 1343 -360.31318 -353.10894  2.00%     - 2673s
     0     0 -353.11873    0 1347 -360.31318 -353.11873  2.00%     - 2684s
     0     0 -353.12188    0 1347 -360.31318 -353.12188  2.00%     - 2696s
     0     0 -353.13970    0 1323 -360.31318 -353.13970  1.99%     - 2786s
     0     0 -353.15200    0 1328 -360.31318 -353.15200  1.99%     - 2810s
     0     0 -353.15828    0 1331 -360.31318 -353.15828  1.99%     - 2822s
     0     0 -353.15828    0 1336 -360.31318 -353.15828  1.99%     - 2831s
     0     0 -353.41371    0 1340 -360.31318 -353.41371  1.91%     - 2853s
     0     0 -353.54011    0 1334 -360.31318 -353.54011  1.88%     - 2876s
     0     0 -353.57133    0 1340 -360.31318 -353.57133  1.87%     - 2889s
     0     0 -353.57133    0 1342 -360.31318 -353.57133  1.87%     - 2898s
     0     0 -353.69049    0 1337 -360.31318 -353.69049  1.84%     - 2924s
     0     0 -353.72281    0 1338 -360.31318 -353.72281  1.83%     - 2943s
     0     0 -353.75112    0 1339 -360.31318 -353.75112  1.82%     - 2953s
     0     0 -353.75410    0 1347 -360.31318 -353.75410  1.82%     - 2961s
     0     0 -353.97680    0 1336 -360.31318 -353.97680  1.76%     - 2990s
     0     0 -354.00605    0 1338 -360.31318 -354.00605  1.75%     - 3010s
     0     0 -354.00638    0 1337 -360.31318 -354.00638  1.75%     - 3019s
     0     0 -354.00638    0 1341 -360.31318 -354.00638  1.75%     - 3040s
     0     0 -354.00638    0 1343 -360.31318 -354.00638  1.75%     - 3053s
     0     0 -354.00638    0 1337 -360.31318 -354.00638  1.75%     - 3118s
     0     0 -354.00638    0 1335 -360.31318 -354.00638  1.75%     - 3147s
     0     2 -354.00973    0 1335 -360.31318 -354.00973  1.75%     - 3261s
     1     3 -356.15965    1 1213 -360.31318 -354.01108  1.75%  2107 3277s
     2     4 -357.43773    2 1085 -360.31318 -354.01108  1.75%  1351 3283s
     5     7 -358.54097    5  996 -360.31318 -354.01108  1.75%   575 3285s
    11     6 -354.50588    1  668 -360.31318 -354.50588  1.61%   337 3299s
    12     7 -355.42127    2  662 -360.31318 -354.50588  1.61%   407 3311s
    13     8 -355.42127    2  648 -360.31318 -355.42127  1.36%   404 3317s
    15    10 -355.69920    4  643 -360.31318 -355.42127  1.36%   371 3325s
    16    11 -355.87503    4  486 -360.31318 -355.42127  1.36%   360 3330s
    17    12 -356.26045    5  485 -360.31318 -355.42127  1.36%   370 3335s
    18    13 -360.04528    5  534 -360.31318 -355.42127  1.36%   614 3364s
    19    14 -356.50347    6  478 -360.31318 -355.42127  1.36%   601 3368s
    20    13     cutoff    6      -360.31318 -355.42127  1.36%   614 3378s
    21    14 -357.29891    7  471 -360.31318 -355.42127  1.36%   607 3383s
    22    15 -357.43252    8  476 -360.31318 -355.42127  1.36%   597 3388s
    23    14     cutoff    8      -360.31318 -355.42127  1.36%   629 3401s
    24    13     cutoff    9      -360.31318 -355.42127  1.36%   634 3408s
    25    14 -358.22664    9  482 -360.31318 -355.42127  1.36%   641 3416s
    26    13     cutoff   10      -360.31318 -355.42127  1.36%   629 3422s
    27    14 -358.55486   10  468 -360.31318 -355.42127  1.36%   624 3429s
    28    15 -359.21423   11  457 -360.31318 -355.42127  1.36%   617 3434s
    29    14     cutoff   12      -360.31318 -355.42127  1.36%   602 3436s
    30    15 -359.43402   12  430 -360.31318 -355.42127  1.36%   592 3441s
    31    14     cutoff   13      -360.31318 -355.42127  1.36%   585 3445s
    33    12     cutoff   11      -360.31318 -355.42127  1.36%   569 3450s
    35    14 -355.87592    4  493 -360.31318 -355.42127  1.36%   547 3459s
    36    15 -358.93827    5  540 -360.31318 -355.42127  1.36%   563 3477s
    37    16 -356.29415    5  493 -360.31318 -355.42127  1.36%   572 3486s
    38    17 -359.61927    6  545 -360.31318 -355.42127  1.36%   611 3509s
    39    18 -356.52740    6  494 -360.31318 -355.42127  1.36%   612 3515s
    40    19 -356.79653    7  434 -360.31318 -355.42127  1.36%   602 3520s
    41    18     cutoff    7      -360.31318 -355.42127  1.36%   681 3550s
    42    19 -357.07127    8  429 -360.31318 -355.42127  1.36%   676 3557s
    43    18     cutoff    8      -360.31318 -355.42127  1.36%   683 3565s
    44    19 -357.71392    9  424 -360.31318 -355.42127  1.36%   680 3572s
    45    18     cutoff    9      -360.31318 -355.42127  1.36%   674 3576s
    46    19 -357.80129   10  363 -360.31318 -355.42127  1.36%   665 3581s
    48    19 -358.11527   11  317 -360.31318 -355.42127  1.36%   649 3590s
    49    20 -358.79463   12  357 -360.31318 -355.42127  1.36%   650 3598s
    50    19     cutoff   12      -360.31318 -355.42127  1.36%   640 3600s
    51    20 -359.55961   13  362 -360.31318 -355.42127  1.36%   635 3607s
    52    19     cutoff   13      -360.31318 -355.42127  1.36%   630 3610s
    53    20 -359.76371   14  366 -360.31318 -355.42127  1.36%   629 3616s
    55    18     cutoff   15      -360.31318 -355.42127  1.36%   613 3620s
    57    18 -355.42216    4  648 -360.31318 -355.42216  1.36%   597 3626s
    58    19 -355.60555    5  641 -360.31318 -355.42357  1.36%   591 3632s
    59    20 -357.63439    6  536 -360.31318 -355.42357  1.36%   594 3643s
    60    21 -357.63439    7  556 -360.31318 -355.42357  1.36%   585 3645s
    62    23 -357.80311    8  481 -360.31318 -355.42357  1.36%   571 3651s
    63    22     cutoff    8      -360.31318 -355.42357  1.36%   574 3660s
    64    23 -358.17577    9  489 -360.31318 -355.42357  1.36%   571 3665s
    66    23 -359.04917   10  490 -360.31318 -355.42357  1.36%   565 3674s
    67    24 -359.65381   11  464 -360.31318 -355.42357  1.36%   564 3680s
    69    22     cutoff   10      -360.31318 -355.42357  1.36%   563 3691s
    71    20     cutoff   12      -360.31318 -355.42357  1.36%   555 3696s
    72    21 -356.46026    3  812 -360.31318 -355.43504  1.35%   555 3709s
    73    22 -357.49773    4  648 -360.31318 -355.43504  1.35%   551 3713s
    74    23 -357.95149    5  491 -360.31318 -355.43504  1.35%   546 3717s
    75    24 -358.12021    6  483 -360.31318 -355.43504  1.35%   544 3721s
    76    23     cutoff    6      -360.31318 -355.43504  1.35%   543 3729s
    77    24 -358.49287    7  491 -360.31318 -355.43504  1.35%   545 3735s
    79    24 -359.36627    8  488 -360.31318 -355.43504  1.35%   539 3743s
    80    25 -359.97091    9  477 -360.31318 -355.43504  1.35%   538 3750s
    82    23     cutoff    8      -360.31318 -355.43504  1.35%   530 3755s
    85    22     cutoff   11      -360.31318 -355.43504  1.35%   514 3760s
    87    22 -359.27966    5  737 -360.31318 -355.43948  1.35%   515 3778s
    88    23 -359.39272    6  492 -360.31318 -355.43948  1.35%   511 3781s
    89    24 -359.56143    7  487 -360.31318 -355.43948  1.35%   511 3786s
    90    23     cutoff    7      -360.31318 -355.43948  1.35%   507 3790s
    91    24 -359.98053    8  491 -360.31318 -355.43948  1.35%   509 3799s
    92    23     cutoff    8      -360.31318 -355.43948  1.35%   506 3801s
    93    24 -360.17528    9  439 -360.31318 -355.43948  1.35%   506 3806s
    97    22 -359.39272    3  495 -360.31318 -355.60772  1.31%   529 3840s
    98    21     cutoff    4      -360.31318 -355.60772  1.31%   534 3853s
    99    22 -359.56143    4  485 -360.31318 -355.60772  1.31%   533 3858s
   100    23 -359.96152    5  485 -360.31318 -355.60772  1.31%   532 3864s
   101    22     cutoff    6      -360.31318 -355.60772  1.31%   528 3866s
   104    21 -356.46217    6  637 -360.31318 -355.69920  1.28%   521 3877s
   105    22 -356.63089    7  629 -360.31318 -355.69920  1.28%   520 3882s
   106    23 -357.04998    8  630 -360.31318 -355.69920  1.28%   518 3887s
   107    24 -357.87695    9  632 -360.31318 -355.69920  1.28%   517 3893s
   108    25 -358.48159   10  625 -360.31318 -355.69920  1.28%   515 3898s
   109    26 -358.50157   11  629 -360.31318 -355.69920  1.28%   511 3902s
   110    27 -359.33634   12  633 -360.31318 -355.69920  1.28%   509 3909s
   111    28 -359.84430   13  626 -360.31318 -355.69920  1.28%   507 3913s
   113    28     cutoff   15      -360.31318 -355.69920  1.28%   501 3915s
   116    25     cutoff   13      -360.31318 -355.69920  1.28%   493 3920s
   117    26 -355.87606    5  641 -360.31318 -355.69920  1.28%   491 3926s
   118    27 -356.75523    6  575 -360.31318 -355.69920  1.28%   489 3935s
   120    29 -358.80661    8  603 -360.31318 -355.69920  1.28%   491 3953s
   121    30 -358.97533    9  596 -360.31318 -355.69920  1.28%   490 3958s
   122    31 -359.34799   10  601 -360.31318 -355.69920  1.28%   489 3963s
   123    32 -360.22138   11  590 -360.31318 -355.69920  1.28%   489 3969s
   125    30     cutoff   12      -360.31318 -355.69920  1.28%   481 3970s
   128    29 -357.63439    5  492 -360.31318 -355.88541  1.23%   480 3983s
   129    30 -357.80311    6  485 -360.31318 -355.88541  1.23%   479 3987s
   130    31 -358.22220    7  482 -360.31318 -355.88541  1.23%   479 3994s
   131    32 -358.55486    8  484 -360.31318 -355.88541  1.23%   480 4001s
   132    33 -358.94560    9  481 -360.31318 -355.88541  1.23%   481 4007s
   133    34 -359.72707   10  423 -360.31318 -355.88541  1.23%   480 4011s
   135    36 -359.87360   12  399 -360.31318 -355.88541  1.23%   476 4017s
   136    36 -360.23416   13  474 -360.31318 -355.88541  1.23%   476 4023s
   139    33     cutoff   12      -360.31318 -355.88541  1.23%   469 4026s
   140    34 -359.39272    6  492 -360.31318 -356.22250  1.14%   470 4035s
   142    34     cutoff    7      -360.31318 -356.22250  1.14%   469 4043s
   143    35 -359.98053    8  487 -360.31318 -356.22250  1.14%   469 4049s
   144    34     cutoff    8      -360.31318 -356.22250  1.14%   466 4050s
   147    31     cutoff    2      -360.31318 -356.46922  1.07%   462 4058s
   148    32 -357.18063    4  648 -360.31318 -356.47246  1.07%   460 4061s
   149    33 -357.63439    5  491 -360.31318 -356.47246  1.07%   458 4065s
   152    34     cutoff    7      -360.31318 -356.47246  1.07%   452 4074s
   153    33     cutoff    6      -360.31318 -356.47246  1.07%   453 4079s
   154    34 -357.80311    6  483 -360.31318 -356.47246  1.07%   453 4082s
   155    35 -357.88558    7  641 -360.31318 -356.47246  1.07%   451 4088s
   156    34     cutoff    7      -360.31318 -356.47246  1.07%   451 4092s
   157    35 -359.39272    8  491 -360.31318 -356.47246  1.07%   450 4095s
   159    35     cutoff    9      -360.31318 -356.47246  1.07%   448 4100s
   160    36 -358.80661    9  635 -360.31318 -356.47246  1.07%   448 4105s
   161    37 -360.27188    9  548 -360.31318 -356.47246  1.07%   449 4115s
   164    36     cutoff   10      -360.31318 -356.47246  1.07%   444 4120s
   167    35 -358.97533   10  626 -360.31318 -356.47246  1.07%   439 4126s
   169    35 -359.10490   11  579 -360.31318 -356.47246  1.07%   436 4134s
   170    36 -359.58917   12  577 -360.31318 -356.47246  1.07%   436 4139s
   171    35     cutoff   12      -360.31318 -356.47246  1.07%   434 4141s
   173    35 -360.26810   13  560 -360.31318 -356.47246  1.07%   433 4147s
   176    34 -360.02013    7  274 -360.31318 -356.50820  1.06%   433 4165s
   179    31     cutoff    7      -360.31318 -356.63726  1.02%   436 4183s
   180    30     cutoff    8      -360.31318 -356.77862  0.98%   441 4192s
   181    29     cutoff    7      -360.31318 -357.09321  0.89%   445 4201s
   182    28     cutoff    9      -360.31318 -357.13089  0.88%   446 4207s
   183    29 -359.09966    8  663 -360.31318 -357.44333  0.80%   448 4219s
   184    30 -359.89510    9  662 -360.31318 -357.44333  0.80%   447 4225s
   188    26     cutoff    3      -360.31318 -357.49773  0.78%   440 4231s
   189    27 -357.53284    5  647 -360.31318 -357.53284  0.77%   438 4235s
   190    28 -357.72214    6  643 -360.31318 -357.54499  0.77%   437 4240s
   191    29 -359.70982    7  547 -360.31318 -357.54499  0.77%   438 4247s
   194    30 -359.87854    9  488 -360.31318 -357.54499  0.77%   434 4252s
   195    31 -360.25119   10  491 -360.31318 -357.54499  0.77%   433 4255s
   199    27     cutoff    6      -360.31318 -357.63439  0.74%   428 4264s
   200    26     cutoff    8      -360.31318 -357.63439  0.74%   427 4267s
   201    27 -358.51355    8  535 -360.31318 -357.63916  0.74%   427 4271s
   203    29 -360.27188   10  521 -360.31318 -357.63916  0.74%   424 4278s
   206    26     cutoff   10      -360.31318 -357.63916  0.74%   419 4280s
   208    28 -359.56143   10  486 -360.31318 -357.63916  0.74%   417 4286s
   211    27     cutoff   12      -360.31318 -357.63916  0.74%   414 4290s
   214    24     cutoff    6      -360.31318 -357.64822  0.74%   412 4303s
   215    23     cutoff    6      -360.31318 -357.66181  0.74%   413 4310s
   218    22 -358.53760    7  641 -360.31318 -357.80347  0.70%   410 4317s
   219    23 -358.83065    8  644 -360.31318 -357.80347  0.70%   409 4320s
   220    24 -359.70982    9  638 -360.31318 -357.80347  0.70%   409 4326s
   223    23 -359.70982    9  597 -360.31318 -357.80347  0.70%   406 4333s
   224    22     cutoff   10      -360.31318 -357.80347  0.70%   405 4336s
   226    20     cutoff    8      -360.31318 -357.80347  0.70%   404 4341s
   227    21 -358.22220    7  483 -360.31318 -357.80948  0.69%   404 4346s
   228    22 -359.04917    8  484 -360.31318 -357.80948  0.69%   404 4350s
   229    23 -359.65381    9  476 -360.31318 -357.80948  0.69%   406 4360s
   230    24 -359.96152   10  473 -360.31318 -357.80948  0.69%   405 4366s
   231    25 -360.23326   11  476 -360.31318 -357.80948  0.69%   405 4371s
   235    21     cutoff   10      -360.31318 -357.80948  0.69%   399 4375s
   237    19     cutoff    8      -360.31318 -357.80948  0.69%   399 4382s
   238    18     cutoff    7      -360.31318 -357.84314  0.69%   399 4387s
   239    17     cutoff   11      -360.31318 -357.88803  0.67%   400 4394s
   240    16     cutoff   10      -360.31318 -358.25627  0.57%   400 4400s
   241    15     cutoff    8      -360.31318 -358.48159  0.51%   401 4406s
   242    14     cutoff   11      -360.31318 -358.50157  0.50%   402 4413s
   243    13     cutoff   12      -360.31318 -358.55486  0.49%   401 4415s
   245    11     cutoff    9      -360.31318 -358.93838  0.38%   402 4426s
   246    12 -359.35572    6  555 -360.31318 -358.93899  0.38%   402 4433s
   247    11     cutoff    7      -360.31318 -358.93899  0.38%   401 4437s
   249     9     cutoff    6      -360.31318 -358.97020  0.37%   401 4444s
   250     8     cutoff   10      -360.31318 -359.35659  0.27%   400 4446s
   252     8 -359.56781    9  489 -360.31318 -359.56781  0.21%   400 4452s
   253     9 -359.93409   10  490 -360.31318 -359.58692  0.20%   401 4457s
   255     7     cutoff   11      -360.31318 -359.58692  0.20%   399 4460s
   258     6 -359.83912    7  552 -360.31318 -359.70982  0.17%   398 4471s
   261     3     cutoff    8      -360.31318 -359.75878  0.15%   395 4475s
   263     3 -360.04577    6  536 -360.31318 -360.04577  0.07%   393 4480s
   265     1     cutoff    7      -360.31318 -360.07404  0.07%   391 4486s

Cutting planes:
  Gomory: 1
  Zero half: 356

Explored 267 nodes (239620 simplex iterations) in 4488.99 seconds
Thread count was 1 (of 80 available processors)

Solution count 7: -360.313 -372.324 -372.325 ... -14715.6

Optimal solution found (tolerance 1.00e-04)
Best objective -3.603131833156e+02, best bound -3.603131833156e+02, gap 0.0000%
